; benchmark generated from python API
(set-info :status unknown)
(declare-fun W_S1_V4 () Bool)
(declare-fun W_S1_V3 () Bool)
(declare-fun W_S1_V2 () Bool)
(declare-fun W_S1_V1 () Bool)
(declare-fun DISJ_W_S1_R_S1 () Bool)
(declare-fun R_S1_V1 () Bool)
(declare-fun R_S1_V3 () Bool)
(declare-fun W_S1_V6 () Bool)
(declare-fun R_S1_V6 () Bool)
(declare-fun R_S1_V4 () Bool)
(declare-fun R_S1_V5 () Bool)
(declare-fun R_S1_V2 () Bool)
(declare-fun R_E2_V1 () Bool)
(declare-fun R_E1_V6 () Bool)
(declare-fun R_E1_V4 () Bool)
(declare-fun R_E1_V5 () Bool)
(declare-fun R_E1_V2 () Bool)
(declare-fun DISJ_W_S1_R_E1 () Bool)
(declare-fun R_E2_V6 () Bool)
(declare-fun R_E2_V4 () Bool)
(declare-fun R_E2_V5 () Bool)
(declare-fun R_E2_V2 () Bool)
(declare-fun DISJ_W_S1_R_E2 () Bool)
(declare-fun W_S1_V5 () Bool)
(declare-fun R_E1_V3 () Bool)
(declare-fun R_E1_V1 () Bool)
(declare-fun R_E2_V3 () Bool)
(assert
 (let (($x1805 (not (and (not W_S1_V3) (not W_S1_V4)))))
 (let (($x174 (not (and (not W_S1_V1) (not W_S1_V2)))))
 (let (($x1552 (not (and (not R_S1_V1) DISJ_W_S1_R_S1))))
 (let (($x682 (not (and (not R_S1_V3) DISJ_W_S1_R_S1))))
 (let (($x6021 (not (and (not W_S1_V4) DISJ_W_S1_R_S1))))
 (let (($x605 (not (and (not W_S1_V2) DISJ_W_S1_R_S1))))
 (let (($x2700 (forall ((V2_0 Int) )(forall ((V5_0 Int) )(forall ((V4_0 Int) )(forall ((V6_0 Int) )(forall ((MW_S1_V1 Bool) )(forall ((MW_S1_V3 Bool) )(forall ((MW_S1_V2 Bool) )(forall ((MW_S1_V5 Bool) )(forall ((MW_S1_V4 Bool) )(forall ((MW_S1_V6 Bool) )(forall ((S1_V1_!5249 Int) )(forall ((S1_V1_!5255 Int) )(forall ((S1_V1_!5264 Int) )(forall ((S1_V1_!5270 Int) )(forall ((S1_V3_!5250 Int) )(forall ((S1_V3_!5256 Int) )(forall ((S1_V3_!5265 Int) )(forall ((S1_V3_!5271 Int) )(forall ((S1_V2_!5251 Int) )(forall ((S1_V2_!5257 Int) )(forall ((S1_V2_!5266 Int) )(forall ((S1_V2_!5272 Int) )(forall ((E1_!5246 Int) )(forall ((E1_!5261 Int) )(forall ((E1_!5263 Int) )(forall ((S1_V5_!5252 Int) )(forall ((S1_V5_!5258 Int) )(forall ((S1_V5_!5267 Int) )(forall ((S1_V5_!5273 Int) )(forall ((E2_!5247 Int) )(forall ((E2_!5248 Int) )(forall ((E2_!5262 Int) )(forall ((S1_V4_!5253 Int) )(forall ((S1_V4_!5259 Int) )(forall ((S1_V4_!5268 Int) )(forall ((S1_V4_!5274 Int) )(forall ((S1_V6_!5254 Int) )(forall ((S1_V6_!5260 Int) )(forall ((S1_V6_!5269 Int) )(forall ((S1_V6_!5275 Int) )(let ((?x2095 (ite MW_S1_V3 S1_V3_!5271 E2_!5262)))
 (let ((?x5763 (ite MW_S1_V3 S1_V3_!5250 E2_!5248)))
 (let ((?x207 (+ 1 ?x5763)))
 (let ((?x2166 (ite MW_S1_V3 S1_V3_!5256 ?x207)))
 (let ((?x1530 (ite MW_S1_V1 S1_V1_!5264 E1_!5263)))
 (let ((?x3410 (+ 1 ?x1530)))
 (let ((?x1171 (ite MW_S1_V1 S1_V1_!5270 ?x3410)))
 (let ((?x5951 (ite MW_S1_V1 S1_V1_!5255 E1_!5246)))
 (let (($x2807 (and (= ?x5951 ?x1171) (= ?x2166 ?x2095) (= (ite MW_S1_V2 S1_V2_!5257 V2_0) (ite MW_S1_V2 S1_V2_!5272 V2_0)) (= (ite MW_S1_V5 S1_V5_!5258 V5_0) (ite MW_S1_V5 S1_V5_!5273 V5_0)) (= (ite MW_S1_V4 S1_V4_!5259 V4_0) (ite MW_S1_V4 S1_V4_!5274 V4_0)) (= (ite MW_S1_V6 S1_V6_!5260 V6_0) (ite MW_S1_V6 S1_V6_!5275 V6_0)))))
 (let (($x3631 (and (not (<= V4_0 E2_!5247)) (not (<= V2_0 E1_!5246)) (not (<= V4_0 E2_!5248)) (not (<= (ite MW_S1_V4 S1_V4_!5253 V4_0) ?x207)) (>= ?x2166 (+ (- 1) (ite MW_S1_V4 S1_V4_!5259 V4_0))) (>= ?x5951 (+ (- 1) (ite MW_S1_V2 S1_V2_!5257 V2_0))) (not (<= V2_0 E1_!5261)) (not (<= V4_0 E2_!5262)) (not (<= V2_0 E1_!5263)) (not (<= (ite MW_S1_V2 S1_V2_!5266 V2_0) ?x3410)) (>= ?x1171 (+ (- 1) (ite MW_S1_V2 S1_V2_!5272 V2_0))) (>= ?x2095 (+ (- 1) (ite MW_S1_V4 S1_V4_!5274 V4_0))))))
 (let (($x2078 (= S1_V6_!5269 S1_V6_!5275)))
 (let (($x1269 (not R_S1_V6)))
 (let (($x1513 (or $x1269 (= V6_0 (ite MW_S1_V6 S1_V6_!5269 V6_0)))))
 (let (($x657 (not R_S1_V4)))
 (let (($x6027 (or $x657 (= V4_0 (ite MW_S1_V4 S1_V4_!5268 V4_0)))))
 (let (($x1345 (not R_S1_V5)))
 (let (($x43 (or $x1345 (= V5_0 (ite MW_S1_V5 S1_V5_!5267 V5_0)))))
 (let (($x3524 (not R_S1_V2)))
 (let (($x5821 (or $x3524 (= V2_0 (ite MW_S1_V2 S1_V2_!5266 V2_0)))))
 (let (($x2983 (and (or (not R_S1_V1) (= E1_!5263 ?x3410)) (or (not R_S1_V3) (= E2_!5262 (ite MW_S1_V3 S1_V3_!5265 E2_!5262))) $x5821 $x43 $x6027 $x1513)))
 (let (($x588 (not $x2983)))
 (let (($x3696 (= S1_V6_!5260 S1_V6_!5275)))
 (let (($x1022 (and (or (not R_S1_V1) (= (ite MW_S1_V1 S1_V1_!5249 E1_!5246) ?x3410)) (or (not R_S1_V3) (= ?x5763 (+ (- 1) (ite MW_S1_V3 S1_V3_!5265 E2_!5262)))) (or $x3524 (= (ite MW_S1_V2 S1_V2_!5251 V2_0) (ite MW_S1_V2 S1_V2_!5266 V2_0))) (or $x1345 (= (ite MW_S1_V5 S1_V5_!5252 V5_0) (ite MW_S1_V5 S1_V5_!5267 V5_0))) (or $x657 (= (ite MW_S1_V4 S1_V4_!5253 V4_0) (ite MW_S1_V4 S1_V4_!5268 V4_0))) (or $x1269 (= (ite MW_S1_V6 S1_V6_!5254 V6_0) (ite MW_S1_V6 S1_V6_!5269 V6_0))))))
 (let (($x5870 (not $x1022)))
 (let (($x2047 (= S1_V6_!5260 S1_V6_!5269)))
 (let (($x4647 (or $x1269 (= (ite MW_S1_V6 S1_V6_!5254 V6_0) V6_0))))
 (let (($x2961 (or $x657 (= (ite MW_S1_V4 S1_V4_!5253 V4_0) V4_0))))
 (let (($x1504 (or $x1345 (= (ite MW_S1_V5 S1_V5_!5252 V5_0) V5_0))))
 (let (($x547 (or $x3524 (= (ite MW_S1_V2 S1_V2_!5251 V2_0) V2_0))))
 (let (($x1706 (and (or (not R_S1_V1) (= (ite MW_S1_V1 S1_V1_!5249 E1_!5246) E1_!5263)) (or (not R_S1_V3) (= ?x5763 (+ (- 1) E2_!5262))) $x547 $x1504 $x2961 $x4647)))
 (let (($x1563 (not $x1706)))
 (let (($x2027 (and (or (not R_S1_V1) (= (ite MW_S1_V1 S1_V1_!5249 E1_!5246) E1_!5246)) (or (not R_S1_V3) (= ?x5763 (+ (- 1) E2_!5248))) $x547 $x1504 $x2961 $x4647)))
 (let (($x2068 (not $x2027)))
 (let (($x2958 (and (or (not R_S1_V1) (= E1_!5246 ?x3410)) (or (not R_S1_V3) (= E2_!5248 (ite MW_S1_V3 S1_V3_!5265 E2_!5262))) $x5821 $x43 $x6027 $x1513)))
 (let (($x332 (not $x2958)))
 (let (($x2607 (and (or (not R_S1_V1) (= E1_!5246 E1_!5263)) (or (not R_S1_V3) (= E2_!5248 E2_!5262)))))
 (let (($x5949 (not $x2607)))
 (let (($x892 (= S1_V4_!5274 S1_V4_!5268)))
 (let (($x1536 (or $x1269 (= (ite MW_S1_V6 S1_V6_!5269 V6_0) V6_0))))
 (let (($x2351 (or $x657 (= (ite MW_S1_V4 S1_V4_!5268 V4_0) V4_0))))
 (let (($x1204 (or $x1345 (= (ite MW_S1_V5 S1_V5_!5267 V5_0) V5_0))))
 (let (($x4575 (or $x3524 (= (ite MW_S1_V2 S1_V2_!5266 V2_0) V2_0))))
 (let (($x1884 (and (or (not R_S1_V1) (= ?x1530 (+ (- 1) E1_!5263))) (or (not R_S1_V3) (= (ite MW_S1_V3 S1_V3_!5265 E2_!5262) E2_!5262)) $x4575 $x1204 $x2351 $x1536)))
 (let (($x602 (not $x1884)))
 (let (($x4054 (and (or (not R_S1_V1) (= ?x1530 (+ (- 1) (ite MW_S1_V1 S1_V1_!5249 E1_!5246)))) (or (not R_S1_V3) (= (ite MW_S1_V3 S1_V3_!5265 E2_!5262) ?x207)) (or $x3524 (= (ite MW_S1_V2 S1_V2_!5266 V2_0) (ite MW_S1_V2 S1_V2_!5251 V2_0))) (or $x1345 (= (ite MW_S1_V5 S1_V5_!5267 V5_0) (ite MW_S1_V5 S1_V5_!5252 V5_0))) (or $x657 (= (ite MW_S1_V4 S1_V4_!5268 V4_0) (ite MW_S1_V4 S1_V4_!5253 V4_0))) (or $x1269 (= (ite MW_S1_V6 S1_V6_!5269 V6_0) (ite MW_S1_V6 S1_V6_!5254 V6_0))))))
 (let (($x2621 (not $x4054)))
 (let (($x5617 (and (or (not R_S1_V1) (= ?x1530 (+ (- 1) E1_!5246))) (or (not R_S1_V3) (= (ite MW_S1_V3 S1_V3_!5265 E2_!5262) E2_!5248)) $x4575 $x1204 $x2351 $x1536)))
 (let (($x758 (not $x5617)))
 (let (($x4594 (and (or (not R_S1_V1) (= E1_!5246 (ite MW_S1_V1 S1_V1_!5249 E1_!5246))) (or (not R_S1_V3) (= E2_!5248 ?x207)) (or $x3524 (= V2_0 (ite MW_S1_V2 S1_V2_!5251 V2_0))) (or $x1345 (= V5_0 (ite MW_S1_V5 S1_V5_!5252 V5_0))) (or $x657 (= V4_0 (ite MW_S1_V4 S1_V4_!5253 V4_0))) (or $x1269 (= V6_0 (ite MW_S1_V6 S1_V6_!5254 V6_0))))))
 (let (($x2113 (not $x4594)))
 (let (($x4808 (and (or (not R_S1_V1) (= E1_!5263 E1_!5246)) (or (not R_S1_V3) (= E2_!5262 E2_!5248)))))
 (let (($x4649 (= E1_!5263 E1_!5261)))
 (let (($x3925 (= E1_!5263 E1_!5246)))
 (let (($x1194 (= E1_!5246 E1_!5261)))
 (let (($x1903 (and (or $x2113 (= S1_V1_!5249 S1_V1_!5255)) (or $x5949 (= S1_V1_!5249 S1_V1_!5264)) (or $x332 (= S1_V1_!5249 S1_V1_!5270)) (or $x1563 (= S1_V1_!5255 S1_V1_!5264)) (or $x2621 (= S1_V1_!5270 S1_V1_!5255)) (or $x602 (= S1_V1_!5270 S1_V1_!5264)) (or $x2113 (= S1_V3_!5250 S1_V3_!5256)) (or $x5949 (= S1_V3_!5250 S1_V3_!5265)) (or $x332 (= S1_V3_!5250 S1_V3_!5271)) (or $x1563 (= S1_V3_!5256 S1_V3_!5265)) (or $x5870 (= S1_V3_!5256 S1_V3_!5271)) (or $x588 (= S1_V3_!5265 S1_V3_!5271)) (or $x5949 (= S1_V2_!5251 S1_V2_!5266)) (or $x332 (= S1_V2_!5251 S1_V2_!5272)) (or $x2068 (= S1_V2_!5257 S1_V2_!5251)) (or $x1563 (= S1_V2_!5257 S1_V2_!5266)) (or $x5870 (= S1_V2_!5257 S1_V2_!5272)) (or $x588 (= S1_V2_!5266 S1_V2_!5272)) $x1194 $x3925 $x4649 (or $x2068 (= S1_V5_!5258 S1_V5_!5252)) (or $x1563 (= S1_V5_!5258 S1_V5_!5267)) (or (not $x4808) (= S1_V5_!5267 S1_V5_!5252)) (or $x758 (= S1_V5_!5273 S1_V5_!5252)) (or $x2621 (= S1_V5_!5273 S1_V5_!5258)) (or $x602 (= S1_V5_!5273 S1_V5_!5267)) (= E2_!5248 E2_!5247) (or (not (or (not R_E2_V1) $x1194)) (= E2_!5248 E2_!5262)) (or (not (or (not R_E2_V1) (= E1_!5261 E1_!5246))) (= E2_!5262 E2_!5247)) (or $x2113 (= S1_V4_!5253 S1_V4_!5259)) (or $x5949 (= S1_V4_!5253 S1_V4_!5268)) (or $x1563 (= S1_V4_!5259 S1_V4_!5268)) (or $x758 (= S1_V4_!5274 S1_V4_!5253)) (or $x2621 (= S1_V4_!5274 S1_V4_!5259)) (or $x602 $x892) (or $x5949 (= S1_V6_!5254 S1_V6_!5269)) (or $x332 (= S1_V6_!5254 S1_V6_!5275)) (or $x2068 (= S1_V6_!5260 S1_V6_!5254)) (or $x1563 $x2047) (or $x5870 $x3696) (or $x588 $x2078) (or (not MW_S1_V1) W_S1_V1) (or (not MW_S1_V3) W_S1_V3) (or (not MW_S1_V2) W_S1_V2) (or (not MW_S1_V4) W_S1_V4) (or (not MW_S1_V6) W_S1_V6))))
 (or (not $x1903) (not $x3631) $x2807)))))))))))))))))))))))))))))))))))))))))))))))))))))))))
 )
 )
 )
 )
 )
 )
 )
 )
 )
 )
 )
 )
 )
 )
 )
 )
 )
 )
 )
 )
 )
 )
 )
 )
 )
 )
 )
 )
 )
 )
 )
 )
 )
 )
 )
 )
 )
 )
 )
 ))
 (let (($x797 (and W_S1_V6 R_E1_V6)))
 (let (($x2499 (and W_S1_V4 R_E1_V4)))
 (let (($x350 (and W_S1_V2 R_E1_V2)))
 (let (($x141 (= DISJ_W_S1_R_E1 (not (or $x350 R_E1_V5 $x2499 $x797)))))
 (let (($x1932 (and W_S1_V6 R_S1_V6)))
 (let (($x2048 (and W_S1_V4 R_S1_V4)))
 (let (($x6074 (and W_S1_V2 R_S1_V2)))
 (let (($x2481 (and W_S1_V3 R_S1_V3)))
 (let (($x2142 (and W_S1_V1 R_S1_V1)))
 (let (($x5800 (= DISJ_W_S1_R_S1 (not (or $x2142 $x2481 $x6074 R_S1_V5 $x2048 $x1932)))))
 (let (($x4016 (and W_S1_V6 R_E2_V6)))
 (let (($x163 (and W_S1_V4 R_E2_V4)))
 (let (($x573 (and W_S1_V2 R_E2_V2)))
 (let (($x1236 (and W_S1_V1 R_E2_V1)))
 (let (($x2454 (= DISJ_W_S1_R_E2 (not (or $x1236 $x573 R_E2_V5 $x163 $x4016)))))
 (let (($x1835 (not R_E1_V3)))
 (let (($x2005 (not R_E1_V1)))
 (let (($x5050 (not R_E2_V3)))
 (and (and $x5050 $x2005 $x1835 W_S1_V5 $x2454 $x5800 $x141 $x2700) $x605 $x6021 $x682 $x1552 $x174 $x1805)))))))))))))))))))))))))))
(check-sat)
